TSPLIB/results10.tsp
NAME : results10
COMMENT : a comment by the user
TYPE : TSP
DIMENSION : 27
EDGE_WEIGHT_TYPE : EXPLICIT
EDGE_WEIGHT_FORMAT: FULL_MATRIX
EDGE_WEIGHT_SECTION
0 0 112833 8787600 112836 64607 64607 63910 64607 77431 111700 0 0 8787600 63910 76977 116580 66900 0 9999999999 9999999999 9999999999 9999999999 9999999999 9999999999 9999999999 9999999999
0 0 139724 66989 139726 91451 91451 14030043 91451 98675 116580 66900 66900 66989 14030043 68469 111700 0 0 9999999999 9999999999 9999999999 9999999999 9999999999 9999999999 9999999999 9999999999
112833 139724 0 0 4000 88300 88300 136600 88300 94900 143735 112833 112833 112800 136600 140063 164101 139724 9999999999 0 9999999999 9999999999 9999999999 9999999999 9999999999 9999999999 9999999999
8787600 66989 0 0 112800 64500 64500 63800 64500 75797 113900 8787600 8787600 0 63800 75322 118643 66989 9999999999 0 9999999999 9999999999 9999999999 9999999999 9999999999 9999999999 9999999999
112836 139726 4000 112800 0 0 88300 136600 88300 94853 143806 112836 112836 112800 136600 140037 164161 139726 9999999999 9999999999 0 9999999999 9999999999 9999999999 9999999999 9999999999 9999999999
64607 91451 88300 64500 0 0 0 88300 0 66000 117950 64607 64607 64500 88300 94853 130099 91451 9999999999 9999999999 0 9999999999 9999999999 9999999999 9999999999 9999999999 9999999999
64607 91451 88300 64500 88300 0 0 0 0 66000 117950 64607 64607 64500 88300 94853 130099 91451 9999999999 9999999999 9999999999 0 9999999999 9999999999 9999999999 9999999999 9999999999
63910 14030043 136600 63800 136600 88300 0 0 88300 94853 117733 63910 63910 63800 0 66000 114064 14030043 9999999999 9999999999 9999999999 0 9999999999 9999999999 9999999999 9999999999 9999999999
64607 91451 88300 64500 88300 0 0 88300 0 0 117950 64607 64607 64500 88300 94853 130099 91451 9999999999 9999999999 9999999999 9999999999 0 9999999999 9999999999 9999999999 9999999999
77431 98675 94900 75797 94853 66000 66000 94853 0 0 142957 77431 77431 75797 94853 88300 152436 98675 9999999999 9999999999 9999999999 9999999999 0 9999999999 9999999999 9999999999 9999999999
111700 116580 143735 113900 143806 117950 117950 117733 117950 142957 0 0 111700 113900 117733 142793 66900 116580 9999999999 9999999999 9999999999 9999999999 9999999999 0 9999999999 9999999999 9999999999
0 66900 112833 8787600 112836 64607 64607 63910 64607 77431 0 0 0 8787600 63910 76977 116580 66900 9999999999 9999999999 9999999999 9999999999 9999999999 0 9999999999 9999999999 9999999999
0 66900 112833 8787600 112836 64607 64607 63910 64607 77431 111700 0 0 0 63910 76977 116580 66900 9999999999 9999999999 9999999999 9999999999 9999999999 9999999999 0 9999999999 9999999999
8787600 66989 112800 0 112800 64500 64500 63800 64500 75797 113900 8787600 0 0 63800 75322 118643 66989 9999999999 9999999999 9999999999 9999999999 9999999999 9999999999 0 9999999999 9999999999
63910 14030043 136600 63800 136600 88300 88300 0 88300 94853 117733 63910 63910 63800 0 0 114064 14030043 9999999999 9999999999 9999999999 9999999999 9999999999 9999999999 9999999999 0 9999999999
76977 68469 140063 75322 140037 94853 94853 66000 94853 88300 142793 76977 76977 75322 0 0 140048 68469 9999999999 9999999999 9999999999 9999999999 9999999999 9999999999 9999999999 0 9999999999
116580 111700 164101 118643 164161 130099 130099 114064 130099 152436 66900 116580 116580 118643 114064 140048 0 0 9999999999 9999999999 9999999999 9999999999 9999999999 9999999999 9999999999 9999999999 0
66900 0 139724 66989 139726 91451 91451 14030043 91451 98675 116580 66900 66900 66989 14030043 68469 0 0 9999999999 9999999999 9999999999 9999999999 9999999999 9999999999 9999999999 9999999999 0
0 0 9999999999 9999999999 9999999999 9999999999 9999999999 9999999999 9999999999 9999999999 9999999999 9999999999 9999999999 9999999999 9999999999 9999999999 9999999999 9999999999 0 9999999999 9999999999 9999999999 9999999999 9999999999 9999999999 9999999999 9999999999
9999999999 9999999999 0 0 9999999999 9999999999 9999999999 9999999999 9999999999 9999999999 9999999999 9999999999 9999999999 9999999999 9999999999 9999999999 9999999999 9999999999 9999999999 0 9999999999 9999999999 9999999999 9999999999 9999999999 9999999999 9999999999
9999999999 9999999999 9999999999 9999999999 0 0 9999999999 9999999999 9999999999 9999999999 9999999999 9999999999 9999999999 9999999999 9999999999 9999999999 9999999999 9999999999 9999999999 9999999999 0 9999999999 9999999999 9999999999 9999999999 9999999999 9999999999
9999999999 9999999999 9999999999 9999999999 9999999999 9999999999 0 0 9999999999 9999999999 9999999999 9999999999 9999999999 9999999999 9999999999 9999999999 9999999999 9999999999 9999999999 9999999999 9999999999 0 9999999999 9999999999 9999999999 9999999999 9999999999
9999999999 9999999999 9999999999 9999999999 9999999999 9999999999 9999999999 9999999999 0 0 9999999999 9999999999 9999999999 9999999999 9999999999 9999999999 9999999999 9999999999 9999999999 9999999999 9999999999 9999999999 0 9999999999 9999999999 9999999999 9999999999
9999999999 9999999999 9999999999 9999999999 9999999999 9999999999 9999999999 9999999999 9999999999 9999999999 0 0 9999999999 9999999999 9999999999 9999999999 9999999999 9999999999 9999999999 9999999999 9999999999 9999999999 9999999999 0 9999999999 9999999999 9999999999
9999999999 9999999999 9999999999 9999999999 9999999999 9999999999 9999999999 9999999999 9999999999 9999999999 9999999999 9999999999 0 0 9999999999 9999999999 9999999999 9999999999 9999999999 9999999999 9999999999 9999999999 9999999999 9999999999 0 9999999999 9999999999
9999999999 9999999999 9999999999 9999999999 9999999999 9999999999 9999999999 9999999999 9999999999 9999999999 9999999999 9999999999 9999999999 9999999999 0 0 9999999999 9999999999 9999999999 9999999999 9999999999 9999999999 9999999999 9999999999 9999999999 0 9999999999
9999999999 9999999999 9999999999 9999999999 9999999999 9999999999 9999999999 9999999999 9999999999 9999999999 9999999999 9999999999 9999999999 9999999999 9999999999 9999999999 0 0 9999999999 9999999999 9999999999 9999999999 9999999999 9999999999 9999999999 9999999999 0
EOF
